local_stuff/sygus_stuff/sygus_inv_oai/sygus_cvc5/cvc_output_2_5min/132_conf1.out
STDOUT:
(
(define-fun inv-f ((c Int) (i Int) (j Int) (conf_0 Int) (t Int) (tmp Int) (c_0 Int) (i_0 Int) (i_1 Int) (i_2 Int) (i_3 Int) (i_4 Int) (j_0 Int) (j_1 Int) (j_2 Int) (j_3 Int) (conf_0_0 Int) (conf_0_1 Int) (conf_0_2 Int) (conf_0_3 Int) (conf_0_4 Int) (conf_0_5 Int) (t_0 Int) (t_1 Int) (t_2 Int) (t_3 Int)) Bool (and (or (not (= c c_0)) (not (= i i_2)) (not (= j j_1)) (not (= conf_0 conf_0_1)) (not (= t t_1)) (>= i_2 0)) (>= i 0)))
)
